\ENCODING=ISO-8859-1
\Problem name: 

Minimize
 obj: 17.5 x0,1,0 + 17.5 x0,1,1 + 17.5 x0,1,2 + 17.5 x0,1,3 + 22.5 x0,2,0
      + 22.5 x0,2,1 + 22.5 x0,2,2 + 22.5 x0,2,3 + 17.2 x0,3,0 + 17.2 x0,3,1
      + 17.2 x0,3,2 + 17.2 x0,3,3 + 26.7 x0,4,0 + 26.7 x0,4,1 + 26.7 x0,4,2
      + 26.7 x0,4,3 + 0 x1,1,0 + 0 x1,1,1 + 0 x1,1,2 + 0 x1,1,3 + 8.4 x1,2,0
      + 8.4 x1,2,1 + 8.4 x1,2,2 + 8.4 x1,2,3 + 3.4 x1,3,0 + 3.4 x1,3,1
      + 3.4 x1,3,2 + 3.4 x1,3,3 + 8.4 x1,4,0 + 8.4 x1,4,1 + 8.4 x1,4,2
      + 8.4 x1,4,3 + 8.4 x2,1,0 + 8.4 x2,1,1 + 8.4 x2,1,2 + 8.4 x2,1,3
      + 0 x2,2,0 + 0 x2,2,1 + 0 x2,2,2 + 0 x2,2,3 + 9.4 x2,3,0 + 9.4 x2,3,1
      + 9.4 x2,3,2 + 9.4 x2,3,3 + 11.7 x2,4,0 + 11.7 x2,4,1 + 11.7 x2,4,2
      + 11.7 x2,4,3 + 3.4 x3,1,0 + 3.4 x3,1,1 + 3.4 x3,1,2 + 3.4 x3,1,3
      + 9.4 x3,2,0 + 9.4 x3,2,1 + 9.4 x3,2,2 + 9.4 x3,2,3 + 0 x3,3,0 + 0 x3,3,1
      + 0 x3,3,2 + 0 x3,3,3 + 7.2 x3,4,0 + 7.2 x3,4,1 + 7.2 x3,4,2 + 7.2 x3,4,3
      + 8.4 x4,1,0 + 8.4 x4,1,1 + 8.4 x4,1,2 + 8.4 x4,1,3 + 11.7 x4,2,0
      + 11.7 x4,2,1 + 11.7 x4,2,2 + 11.7 x4,2,3 + 7.2 x4,3,0 + 7.2 x4,3,1
      + 7.2 x4,3,2 + 7.2 x4,3,3 + 0 x4,4,0 + 0 x4,4,1 + 0 x4,4,2 + 0 x4,4,3
Subject To
 c1:   x0,1,0 + x0,1,1 + x0,1,2 + x0,1,3 + x2,1,0 + x2,1,1 + x2,1,2 + x2,1,3
       + x3,1,0 + x3,1,1 + x3,1,2 + x3,1,3 + x4,1,0 + x4,1,1 + x4,1,2 + x4,1,3
        = 1
 c2:   x0,2,0 + x0,2,1 + x0,2,2 + x0,2,3 + x1,2,0 + x1,2,1 + x1,2,2 + x1,2,3
       + x3,2,0 + x3,2,1 + x3,2,2 + x3,2,3 + x4,2,0 + x4,2,1 + x4,2,2 + x4,2,3
        = 1
 c3:   x0,3,0 + x0,3,1 + x0,3,2 + x0,3,3 + x1,3,0 + x1,3,1 + x1,3,2 + x1,3,3
       + x2,3,0 + x2,3,1 + x2,3,2 + x2,3,3 + x4,3,0 + x4,3,1 + x4,3,2 + x4,3,3
        = 1
 c4:   x0,4,0 + x0,4,1 + x0,4,2 + x0,4,3 + x1,4,0 + x1,4,1 + x1,4,2 + x1,4,3
       + x2,4,0 + x2,4,1 + x2,4,2 + x2,4,3 + x3,4,0 + x3,4,1 + x3,4,2 + x3,4,3
        = 1
 c5:   x0,0,0 + x0,1,0 + x0,2,0 + x0,3,0 + x0,4,0  = 1
 c6:   x0,0,1 + x0,1,1 + x0,2,1 + x0,3,1 + x0,4,1  = 1
 c7:   x0,0,2 + x0,1,2 + x0,2,2 + x0,3,2 + x0,4,2  = 1
 c8:   x0,0,3 + x0,1,3 + x0,2,3 + x0,3,3 + x0,4,3  = 1
 c9:   x0,0,0 + x1,0,0 + x2,0,0 + x3,0,0 + x4,0,0  = 1
 c10:  x0,0,1 + x1,0,1 + x2,0,1 + x3,0,1 + x4,0,1  = 1
 c11:  x0,0,2 + x1,0,2 + x2,0,2 + x3,0,2 + x4,0,2  = 1
 c12:  x0,0,3 + x1,0,3 + x2,0,3 + x3,0,3 + x4,0,3  = 1
 c13:  x0,1,0 - x1,0,0 - x1,2,0 - x1,3,0 - x1,4,0 + x2,1,0 + x3,1,0 + x4,1,0
        = 0
 c14:  x0,2,0 + x1,2,0 - x2,0,0 - x2,1,0 - x2,3,0 - x2,4,0 + x3,2,0 + x4,2,0
        = 0
 c15:  x0,3,0 + x1,3,0 + x2,3,0 - x3,0,0 - x3,1,0 - x3,2,0 - x3,4,0 + x4,3,0
        = 0
 c16:  x0,4,0 + x1,4,0 + x2,4,0 + x3,4,0 - x4,0,0 - x4,1,0 - x4,2,0 - x4,3,0
        = 0
 c17:  x0,1,1 - x1,0,1 - x1,2,1 - x1,3,1 - x1,4,1 + x2,1,1 + x3,1,1 + x4,1,1
        = 0
 c18:  x0,2,1 + x1,2,1 - x2,0,1 - x2,1,1 - x2,3,1 - x2,4,1 + x3,2,1 + x4,2,1
        = 0
 c19:  x0,3,1 + x1,3,1 + x2,3,1 - x3,0,1 - x3,1,1 - x3,2,1 - x3,4,1 + x4,3,1
        = 0
 c20:  x0,4,1 + x1,4,1 + x2,4,1 + x3,4,1 - x4,0,1 - x4,1,1 - x4,2,1 - x4,3,1
        = 0
 c21:  x0,1,2 - x1,0,2 - x1,2,2 - x1,3,2 - x1,4,2 + x2,1,2 + x3,1,2 + x4,1,2
        = 0
 c22:  x0,2,2 + x1,2,2 - x2,0,2 - x2,1,2 - x2,3,2 - x2,4,2 + x3,2,2 + x4,2,2
        = 0
 c23:  x0,3,2 + x1,3,2 + x2,3,2 - x3,0,2 - x3,1,2 - x3,2,2 - x3,4,2 + x4,3,2
        = 0
 c24:  x0,4,2 + x1,4,2 + x2,4,2 + x3,4,2 - x4,0,2 - x4,1,2 - x4,2,2 - x4,3,2
        = 0
 c25:  x0,1,3 - x1,0,3 - x1,2,3 - x1,3,3 - x1,4,3 + x2,1,3 + x3,1,3 + x4,1,3
        = 0
 c26:  x0,2,3 + x1,2,3 - x2,0,3 - x2,1,3 - x2,3,3 - x2,4,3 + x3,2,3 + x4,2,3
        = 0
 c27:  x0,3,3 + x1,3,3 + x2,3,3 - x3,0,3 - x3,1,3 - x3,2,3 - x3,4,3 + x4,3,3
        = 0
 c28:  x0,4,3 + x1,4,3 + x2,4,3 + x3,4,3 - x4,0,3 - x4,1,3 - x4,2,3 - x4,3,3
        = 0
 c29:  x0,1,0 + x0,2,0 + x0,3,0 + x0,4,0 + x1,2,0 + x1,3,0 + x1,4,0 + x2,1,0
       + x2,3,0 + x2,4,0 + x3,1,0 + x3,2,0 + x3,4,0 + x4,1,0 + x4,2,0 + x4,3,0
       <= 4
 c30:  x0,1,1 + x0,2,1 + x0,3,1 + x0,4,1 + x1,2,1 + x1,3,1 + x1,4,1 + x2,1,1
       + x2,3,1 + x2,4,1 + x3,1,1 + x3,2,1 + x3,4,1 + x4,1,1 + x4,2,1 + x4,3,1
       <= 4
 c31:  x0,1,2 + x0,2,2 + x0,3,2 + x0,4,2 + x1,2,2 + x1,3,2 + x1,4,2 + x2,1,2
       + x2,3,2 + x2,4,2 + x3,1,2 + x3,2,2 + x3,4,2 + x4,1,2 + x4,2,2 + x4,3,2
       <= 4
 c32:  x0,1,3 + x0,2,3 + x0,3,3 + x0,4,3 + x1,2,3 + x1,3,3 + x1,4,3 + x2,1,3
       + x2,3,3 + x2,4,3 + x3,1,3 + x3,2,3 + x3,4,3 + x4,1,3 + x4,2,3 + x4,3,3
       <= 4
 c33:  100000 x0,1,0 + w00 - w10 <= 99982.5
 c34:  1123 x0,1,0 - w00 <= 0
 c35:  100000 x0,2,0 + w00 - w20 <= 99977.5
 c36:  1124 x0,2,0 - w00 <= 0
 c37:  100000 x0,3,0 + w00 - w30 <= 99982.8
 c38:  1121 x0,3,0 - w00 <= 0
 c39:  100000 x0,4,0 + w00 - w40 <= 99973.3
 c40:  1130 x0,4,0 - w00 <= 0
 c41:  100000 x1,2,0 + w10 - w20 <= 99991.6
 c42:  1124 x1,2,0 - w00 <= 0
 c43:  100000 x1,3,0 + w10 - w30 <= 99996.6
 c44:  1121 x1,3,0 - w00 <= 0
 c45:  100000 x1,4,0 + w10 - w40 <= 99991.6
 c46:  1130 x1,4,0 - w00 <= 0
 c47:  100000 x2,1,0 - w10 + w20 <= 99991.6
 c48:  1123 x2,1,0 - w00 <= 0
 c49:  100000 x2,3,0 + w20 - w30 <= 99990.6
 c50:  1121 x2,3,0 - w00 <= 0
 c51:  100000 x2,4,0 + w20 - w40 <= 99988.3
 c52:  1130 x2,4,0 - w00 <= 0
 c53:  100000 x3,1,0 - w10 + w30 <= 99996.6
 c54:  1123 x3,1,0 - w00 <= 0
 c55:  100000 x3,2,0 - w20 + w30 <= 99990.6
 c56:  1124 x3,2,0 - w00 <= 0
 c57:  100000 x3,4,0 + w30 - w40 <= 99992.8
 c58:  1130 x3,4,0 - w00 <= 0
 c59:  100000 x4,1,0 - w10 + w40 <= 99991.6
 c60:  1123 x4,1,0 - w00 <= 0
 c61:  100000 x4,2,0 - w20 + w40 <= 99988.3
 c62:  1124 x4,2,0 - w00 <= 0
 c63:  100000 x4,3,0 - w30 + w40 <= 99992.8
 c64:  1121 x4,3,0 - w00 <= 0
 c65:  100000 x0,1,1 + w01 - w11 <= 99982.5
 c66:  1123 x0,1,1 - w01 <= 0
 c67:  100000 x0,2,1 + w01 - w21 <= 99977.5
 c68:  1124 x0,2,1 - w01 <= 0
 c69:  100000 x0,3,1 + w01 - w31 <= 99982.8
 c70:  1121 x0,3,1 - w01 <= 0
 c71:  100000 x0,4,1 + w01 - w41 <= 99973.3
 c72:  1130 x0,4,1 - w01 <= 0
 c73:  100000 x1,2,1 + w11 - w21 <= 99991.6
 c74:  1124 x1,2,1 - w01 <= 0
 c75:  100000 x1,3,1 + w11 - w31 <= 99996.6
 c76:  1121 x1,3,1 - w01 <= 0
 c77:  100000 x1,4,1 + w11 - w41 <= 99991.6
 c78:  1130 x1,4,1 - w01 <= 0
 c79:  100000 x2,1,1 - w11 + w21 <= 99991.6
 c80:  1123 x2,1,1 - w01 <= 0
 c81:  100000 x2,3,1 + w21 - w31 <= 99990.6
 c82:  1121 x2,3,1 - w01 <= 0
 c83:  100000 x2,4,1 + w21 - w41 <= 99988.3
 c84:  1130 x2,4,1 - w01 <= 0
 c85:  100000 x3,1,1 - w11 + w31 <= 99996.6
 c86:  1123 x3,1,1 - w01 <= 0
 c87:  100000 x3,2,1 - w21 + w31 <= 99990.6
 c88:  1124 x3,2,1 - w01 <= 0
 c89:  100000 x3,4,1 + w31 - w41 <= 99992.8
 c90:  1130 x3,4,1 - w01 <= 0
 c91:  100000 x4,1,1 - w11 + w41 <= 99991.6
 c92:  1123 x4,1,1 - w01 <= 0
 c93:  100000 x4,2,1 - w21 + w41 <= 99988.3
 c94:  1124 x4,2,1 - w01 <= 0
 c95:  100000 x4,3,1 - w31 + w41 <= 99992.8
 c96:  1121 x4,3,1 - w01 <= 0
 c97:  100000 x0,1,2 + w02 - w12 <= 99982.5
 c98:  1123 x0,1,2 - w02 <= 0
 c99:  100000 x0,2,2 + w02 - w22 <= 99977.5
 c100: 1124 x0,2,2 - w02 <= 0
 c101: 100000 x0,3,2 + w02 - w32 <= 99982.8
 c102: 1121 x0,3,2 - w02 <= 0
 c103: 100000 x0,4,2 + w02 - w42 <= 99973.3
 c104: 1130 x0,4,2 - w02 <= 0
 c105: 100000 x1,2,2 + w12 - w22 <= 99991.6
 c106: 1124 x1,2,2 - w02 <= 0
 c107: 100000 x1,3,2 + w12 - w32 <= 99996.6
 c108: 1121 x1,3,2 - w02 <= 0
 c109: 100000 x1,4,2 + w12 - w42 <= 99991.6
 c110: 1130 x1,4,2 - w02 <= 0
 c111: 100000 x2,1,2 - w12 + w22 <= 99991.6
 c112: 1123 x2,1,2 - w02 <= 0
 c113: 100000 x2,3,2 + w22 - w32 <= 99990.6
 c114: 1121 x2,3,2 - w02 <= 0
 c115: 100000 x2,4,2 + w22 - w42 <= 99988.3
 c116: 1130 x2,4,2 - w02 <= 0
 c117: 100000 x3,1,2 - w12 + w32 <= 99996.6
 c118: 1123 x3,1,2 - w02 <= 0
 c119: 100000 x3,2,2 - w22 + w32 <= 99990.6
 c120: 1124 x3,2,2 - w02 <= 0
 c121: 100000 x3,4,2 + w32 - w42 <= 99992.8
 c122: 1130 x3,4,2 - w02 <= 0
 c123: 100000 x4,1,2 - w12 + w42 <= 99991.6
 c124: 1123 x4,1,2 - w02 <= 0
 c125: 100000 x4,2,2 - w22 + w42 <= 99988.3
 c126: 1124 x4,2,2 - w02 <= 0
 c127: 100000 x4,3,2 - w32 + w42 <= 99992.8
 c128: 1121 x4,3,2 - w02 <= 0
 c129: 100000 x0,1,3 + w03 - w13 <= 99982.5
 c130: 1123 x0,1,3 - w03 <= 0
 c131: 100000 x0,2,3 + w03 - w23 <= 99977.5
 c132: 1124 x0,2,3 - w03 <= 0
 c133: 100000 x0,3,3 + w03 - w33 <= 99982.8
 c134: 1121 x0,3,3 - w03 <= 0
 c135: 100000 x0,4,3 + w03 - w43 <= 99973.3
 c136: 1130 x0,4,3 - w03 <= 0
 c137: 100000 x1,2,3 + w13 - w23 <= 99991.6
 c138: 1124 x1,2,3 - w03 <= 0
 c139: 100000 x1,3,3 + w13 - w33 <= 99996.6
 c140: 1121 x1,3,3 - w03 <= 0
 c141: 100000 x1,4,3 + w13 - w43 <= 99991.6
 c142: 1130 x1,4,3 - w03 <= 0
 c143: 100000 x2,1,3 - w13 + w23 <= 99991.6
 c144: 1123 x2,1,3 - w03 <= 0
 c145: 100000 x2,3,3 + w23 - w33 <= 99990.6
 c146: 1121 x2,3,3 - w03 <= 0
 c147: 100000 x2,4,3 + w23 - w43 <= 99988.3
 c148: 1130 x2,4,3 - w03 <= 0
 c149: 100000 x3,1,3 - w13 + w33 <= 99996.6
 c150: 1123 x3,1,3 - w03 <= 0
 c151: 100000 x3,2,3 - w23 + w33 <= 99990.6
 c152: 1124 x3,2,3 - w03 <= 0
 c153: 100000 x3,4,3 + w33 - w43 <= 99992.8
 c154: 1130 x3,4,3 - w03 <= 0
 c155: 100000 x4,1,3 - w13 + w43 <= 99991.6
 c156: 1123 x4,1,3 - w03 <= 0
 c157: 100000 x4,2,3 - w23 + w43 <= 99988.3
 c158: 1124 x4,2,3 - w03 <= 0
 c159: 100000 x4,3,3 - w33 + w43 <= 99992.8
 c160: 1121 x4,3,3 - w03 <= 0
 c161: 22.75 x1,0,0 + 22.75 x1,2,0 + 22.75 x1,3,0 + 22.75 x1,4,0 + w00 - w10
       >= 0
 c162: 29.25 x2,0,0 + 29.25 x2,1,0 + 29.25 x2,3,0 + 29.25 x2,4,0 + w00 - w20
       >= 0
 c163: 22.36 x3,0,0 + 22.36 x3,1,0 + 22.36 x3,2,0 + 22.36 x3,4,0 + w00 - w30
       >= 0
 c164: 34.71 x4,0,0 + 34.71 x4,1,0 + 34.71 x4,2,0 + 34.71 x4,3,0 + w00 - w40
       >= 0
 c165: 22.75 x1,0,1 + 22.75 x1,2,1 + 22.75 x1,3,1 + 22.75 x1,4,1 + w01 - w11
       >= 0
 c166: 29.25 x2,0,1 + 29.25 x2,1,1 + 29.25 x2,3,1 + 29.25 x2,4,1 + w01 - w21
       >= 0
 c167: 22.36 x3,0,1 + 22.36 x3,1,1 + 22.36 x3,2,1 + 22.36 x3,4,1 + w01 - w31
       >= 0
 c168: 34.71 x4,0,1 + 34.71 x4,1,1 + 34.71 x4,2,1 + 34.71 x4,3,1 + w01 - w41
       >= 0
 c169: 22.75 x1,0,2 + 22.75 x1,2,2 + 22.75 x1,3,2 + 22.75 x1,4,2 + w02 - w12
       >= 0
 c170: 29.25 x2,0,2 + 29.25 x2,1,2 + 29.25 x2,3,2 + 29.25 x2,4,2 + w02 - w22
       >= 0
 c171: 22.36 x3,0,2 + 22.36 x3,1,2 + 22.36 x3,2,2 + 22.36 x3,4,2 + w02 - w32
       >= 0
 c172: 34.71 x4,0,2 + 34.71 x4,1,2 + 34.71 x4,2,2 + 34.71 x4,3,2 + w02 - w42
       >= 0
 c173: 22.75 x1,0,3 + 22.75 x1,2,3 + 22.75 x1,3,3 + 22.75 x1,4,3 + w03 - w13
       >= 0
 c174: 29.25 x2,0,3 + 29.25 x2,1,3 + 29.25 x2,3,3 + 29.25 x2,4,3 + w03 - w23
       >= 0
 c175: 22.36 x3,0,3 + 22.36 x3,1,3 + 22.36 x3,2,3 + 22.36 x3,4,3 + w03 - w33
       >= 0
 c176: 34.71 x4,0,3 + 34.71 x4,1,3 + 34.71 x4,2,3 + 34.71 x4,3,3 + w03 - w43
       >= 0
Bounds
 0 <= x0,0,0 <= 1
 0 <= x0,0,1 <= 1
 0 <= x0,0,2 <= 1
 0 <= x0,0,3 <= 1
 0 <= x0,1,0 <= 1
 0 <= x0,1,1 <= 1
 0 <= x0,1,2 <= 1
 0 <= x0,1,3 <= 1
 0 <= x0,2,0 <= 1
 0 <= x0,2,1 <= 1
 0 <= x0,2,2 <= 1
 0 <= x0,2,3 <= 1
 0 <= x0,3,0 <= 1
 0 <= x0,3,1 <= 1
 0 <= x0,3,2 <= 1
 0 <= x0,3,3 <= 1
 0 <= x0,4,0 <= 1
 0 <= x0,4,1 <= 1
 0 <= x0,4,2 <= 1
 0 <= x0,4,3 <= 1
 0 <= x1,0,0 <= 1
 0 <= x1,0,1 <= 1
 0 <= x1,0,2 <= 1
 0 <= x1,0,3 <= 1
 0 <= x1,1,0 <= 1
 0 <= x1,1,1 <= 1
 0 <= x1,1,2 <= 1
 0 <= x1,1,3 <= 1
 0 <= x1,2,0 <= 1
 0 <= x1,2,1 <= 1
 0 <= x1,2,2 <= 1
 0 <= x1,2,3 <= 1
 0 <= x1,3,0 <= 1
 0 <= x1,3,1 <= 1
 0 <= x1,3,2 <= 1
 0 <= x1,3,3 <= 1
 0 <= x1,4,0 <= 1
 0 <= x1,4,1 <= 1
 0 <= x1,4,2 <= 1
 0 <= x1,4,3 <= 1
 0 <= x2,0,0 <= 1
 0 <= x2,0,1 <= 1
 0 <= x2,0,2 <= 1
 0 <= x2,0,3 <= 1
 0 <= x2,1,0 <= 1
 0 <= x2,1,1 <= 1
 0 <= x2,1,2 <= 1
 0 <= x2,1,3 <= 1
 0 <= x2,2,0 <= 1
 0 <= x2,2,1 <= 1
 0 <= x2,2,2 <= 1
 0 <= x2,2,3 <= 1
 0 <= x2,3,0 <= 1
 0 <= x2,3,1 <= 1
 0 <= x2,3,2 <= 1
 0 <= x2,3,3 <= 1
 0 <= x2,4,0 <= 1
 0 <= x2,4,1 <= 1
 0 <= x2,4,2 <= 1
 0 <= x2,4,3 <= 1
 0 <= x3,0,0 <= 1
 0 <= x3,0,1 <= 1
 0 <= x3,0,2 <= 1
 0 <= x3,0,3 <= 1
 0 <= x3,1,0 <= 1
 0 <= x3,1,1 <= 1
 0 <= x3,1,2 <= 1
 0 <= x3,1,3 <= 1
 0 <= x3,2,0 <= 1
 0 <= x3,2,1 <= 1
 0 <= x3,2,2 <= 1
 0 <= x3,2,3 <= 1
 0 <= x3,3,0 <= 1
 0 <= x3,3,1 <= 1
 0 <= x3,3,2 <= 1
 0 <= x3,3,3 <= 1
 0 <= x3,4,0 <= 1
 0 <= x3,4,1 <= 1
 0 <= x3,4,2 <= 1
 0 <= x3,4,3 <= 1
 0 <= x4,0,0 <= 1
 0 <= x4,0,1 <= 1
 0 <= x4,0,2 <= 1
 0 <= x4,0,3 <= 1
 0 <= x4,1,0 <= 1
 0 <= x4,1,1 <= 1
 0 <= x4,1,2 <= 1
 0 <= x4,1,3 <= 1
 0 <= x4,2,0 <= 1
 0 <= x4,2,1 <= 1
 0 <= x4,2,2 <= 1
 0 <= x4,2,3 <= 1
 0 <= x4,3,0 <= 1
 0 <= x4,3,1 <= 1
 0 <= x4,3,2 <= 1
 0 <= x4,3,3 <= 1
 0 <= x4,4,0 <= 1
 0 <= x4,4,1 <= 1
 0 <= x4,4,2 <= 1
 0 <= x4,4,3 <= 1
Generals
 x0,0,0  x0,0,1  x0,0,2  x0,0,3  x0,1,0  x0,1,1  x0,1,2  x0,1,3  x0,2,0 
 x0,2,1  x0,2,2  x0,2,3  x0,3,0  x0,3,1  x0,3,2  x0,3,3  x0,4,0  x0,4,1 
 x0,4,2  x0,4,3  x1,0,0  x1,0,1  x1,0,2  x1,0,3  x1,1,0  x1,1,1  x1,1,2 
 x1,1,3  x1,2,0  x1,2,1  x1,2,2  x1,2,3  x1,3,0  x1,3,1  x1,3,2  x1,3,3 
 x1,4,0  x1,4,1  x1,4,2  x1,4,3  x2,0,0  x2,0,1  x2,0,2  x2,0,3  x2,1,0 
 x2,1,1  x2,1,2  x2,1,3  x2,2,0  x2,2,1  x2,2,2  x2,2,3  x2,3,0  x2,3,1 
 x2,3,2  x2,3,3  x2,4,0  x2,4,1  x2,4,2  x2,4,3  x3,0,0  x3,0,1  x3,0,2 
 x3,0,3  x3,1,0  x3,1,1  x3,1,2  x3,1,3  x3,2,0  x3,2,1  x3,2,2  x3,2,3 
 x3,3,0  x3,3,1  x3,3,2  x3,3,3  x3,4,0  x3,4,1  x3,4,2  x3,4,3  x4,0,0 
 x4,0,1  x4,0,2  x4,0,3  x4,1,0  x4,1,1  x4,1,2  x4,1,3  x4,2,0  x4,2,1 
 x4,2,2  x4,2,3  x4,3,0  x4,3,1  x4,3,2  x4,3,3  x4,4,0  x4,4,1  x4,4,2 
 x4,4,3 
End
